p cnf 213 1524
-2 -3 0
-2 -4 0
-2 -5 0
-2 -9 0
-2 -13 0
-3 -4 0
-3 -5 0
-3 -9 0
-3 -13 0
-4 -5 0
-4 -9 0
-4 -13 0
-5 -9 0
-5 -13 0
-9 -13 0
-18 -19 0
-18 -20 0
-18 -21 0
-18 -25 0
-18 -29 0
-19 -20 0
-19 -21 0
-19 -25 0
-19 -29 0
-20 -21 0
-20 -25 0
-20 -29 0
-21 -25 0
-21 -29 0
-25 -29 0
-34 -35 0
-34 -36 0
-34 -37 0
-34 -41 0
-34 -45 0
-35 -36 0
-35 -37 0
-35 -41 0
-35 -45 0
-36 -37 0
-36 -41 0
-36 -45 0
-37 -41 0
-37 -45 0
-41 -45 0
-50 -51 0
-50 -52 0
-50 -53 0
-50 -57 0
-50 -61 0
-51 -52 0
-51 -53 0
-51 -57 0
-51 -61 0
-52 -53 0
-52 -57 0
-52 -61 0
-53 -57 0
-53 -61 0
-57 -61 0
-66 -67 0
-66 -68 0
-66 -69 0
-66 -73 0
-66 -77 0
-67 -68 0
-67 -69 0
-67 -73 0
-67 -77 0
-68 -69 0
-68 -73 0
-68 -77 0
-69 -73 0
-69 -77 0
-73 -77 0
-82 -83 0
-82 -84 0
-82 -85 0
-82 -89 0
-82 -93 0
-83 -84 0
-83 -85 0
-83 -89 0
-83 -93 0
-84 -85 0
-84 -89 0
-84 -93 0
-85 -89 0
-85 -93 0
-89 -93 0
-98 -99 0
-98 -100 0
-98 -101 0
-98 -105 0
-98 -109 0
-99 -100 0
-99 -101 0
-99 -105 0
-99 -109 0
-100 -101 0
-100 -105 0
-100 -109 0
-101 -105 0
-101 -109 0
-105 -109 0
-114 -115 0
-114 -116 0
-114 -117 0
-114 -121 0
-114 -125 0
-115 -116 0
-115 -117 0
-115 -121 0
-115 -125 0
-116 -117 0
-116 -121 0
-116 -125 0
-117 -121 0
-117 -125 0
-121 -125 0
-130 -131 0
-130 -132 0
-130 -133 0
-130 -137 0
-130 -141 0
-131 -132 0
-131 -133 0
-131 -137 0
-131 -141 0
-132 -133 0
-132 -137 0
-132 -141 0
-133 -137 0
-133 -141 0
-137 -141 0
-146 -147 0
-146 -148 0
-146 -149 0
-146 -153 0
-146 -157 0
-147 -148 0
-147 -149 0
-147 -153 0
-147 -157 0
-148 -149 0
-148 -153 0
-148 -157 0
-149 -153 0
-149 -157 0
-153 -157 0
-162 -163 0
-162 -164 0
-162 -165 0
-162 -169 0
-162 -173 0
-163 -164 0
-163 -165 0
-163 -169 0
-163 -173 0
-164 -165 0
-164 -169 0
-164 -173 0
-165 -169 0
-165 -173 0
-169 -173 0
-178 -179 0
-178 -180 0
-178 -181 0
-178 -185 0
-178 -189 0
-179 -180 0
-179 -181 0
-179 -185 0
-179 -189 0
-180 -181 0
-180 -185 0
-180 -189 0
-181 -185 0
-181 -189 0
-185 -189 0
-5 -7 0
-5 -8 0
-5 -2 0
-5 -10 0
-5 -14 0
-7 -8 0
-7 -2 0
-7 -10 0
-7 -14 0
-8 -2 0
-8 -10 0
-8 -14 0
-2 -10 0
-2 -14 0
-10 -14 0
-21 -23 0
-21 -24 0
-21 -18 0
-21 -26 0
-21 -30 0
-23 -24 0
-23 -18 0
-23 -26 0
-23 -30 0
-24 -18 0
-24 -26 0
-24 -30 0
-18 -26 0
-18 -30 0
-26 -30 0
-37 -39 0
-37 -40 0
-37 -34 0
-37 -42 0
-37 -46 0
-39 -40 0
-39 -34 0
-39 -42 0
-39 -46 0
-40 -34 0
-40 -42 0
-40 -46 0
-34 -42 0
-34 -46 0
-42 -46 0
-53 -55 0
-53 -56 0
-53 -50 0
-53 -58 0
-53 -62 0
-55 -56 0
-55 -50 0
-55 -58 0
-55 -62 0
-56 -50 0
-56 -58 0
-56 -62 0
-50 -58 0
-50 -62 0
-58 -62 0
-69 -71 0
-69 -72 0
-69 -66 0
-69 -74 0
-69 -78 0
-71 -72 0
-71 -66 0
-71 -74 0
-71 -78 0
-72 -66 0
-72 -74 0
-72 -78 0
-66 -74 0
-66 -78 0
-74 -78 0
-85 -87 0
-85 -88 0
-85 -82 0
-85 -90 0
-85 -94 0
-87 -88 0
-87 -82 0
-87 -90 0
-87 -94 0
-88 -82 0
-88 -90 0
-88 -94 0
-82 -90 0
-82 -94 0
-90 -94 0
-101 -103 0
-101 -104 0
-101 -98 0
-101 -106 0
-101 -110 0
-103 -104 0
-103 -98 0
-103 -106 0
-103 -110 0
-104 -98 0
-104 -106 0
-104 -110 0
-98 -106 0
-98 -110 0
-106 -110 0
-117 -119 0
-117 -120 0
-117 -114 0
-117 -122 0
-117 -126 0
-119 -120 0
-119 -114 0
-119 -122 0
-119 -126 0
-120 -114 0
-120 -122 0
-120 -126 0
-114 -122 0
-114 -126 0
-122 -126 0
-133 -135 0
-133 -136 0
-133 -130 0
-133 -138 0
-133 -142 0
-135 -136 0
-135 -130 0
-135 -138 0
-135 -142 0
-136 -130 0
-136 -138 0
-136 -142 0
-130 -138 0
-130 -142 0
-138 -142 0
-149 -151 0
-149 -152 0
-149 -146 0
-149 -154 0
-149 -158 0
-151 -152 0
-151 -146 0
-151 -154 0
-151 -158 0
-152 -146 0
-152 -154 0
-152 -158 0
-146 -154 0
-146 -158 0
-154 -158 0
-165 -167 0
-165 -168 0
-165 -162 0
-165 -170 0
-165 -174 0
-167 -168 0
-167 -162 0
-167 -170 0
-167 -174 0
-168 -162 0
-168 -170 0
-168 -174 0
-162 -170 0
-162 -174 0
-170 -174 0
-181 -183 0
-181 -184 0
-181 -178 0
-181 -186 0
-181 -190 0
-183 -184 0
-183 -178 0
-183 -186 0
-183 -190 0
-184 -178 0
-184 -186 0
-184 -190 0
-178 -186 0
-178 -190 0
-186 -190 0
-9 -10 0
-9 -12 0
-9 -3 0
-9 -7 0
-9 -15 0
-10 -12 0
-10 -3 0
-10 -7 0
-10 -15 0
-12 -3 0
-12 -7 0
-12 -15 0
-3 -7 0
-3 -15 0
-7 -15 0
-25 -26 0
-25 -28 0
-25 -19 0
-25 -23 0
-25 -31 0
-26 -28 0
-26 -19 0
-26 -23 0
-26 -31 0
-28 -19 0
-28 -23 0
-28 -31 0
-19 -23 0
-19 -31 0
-23 -31 0
-41 -42 0
-41 -44 0
-41 -35 0
-41 -39 0
-41 -47 0
-42 -44 0
-42 -35 0
-42 -39 0
-42 -47 0
-44 -35 0
-44 -39 0
-44 -47 0
-35 -39 0
-35 -47 0
-39 -47 0
-57 -58 0
-57 -60 0
-57 -51 0
-57 -55 0
-57 -63 0
-58 -60 0
-58 -51 0
-58 -55 0
-58 -63 0
-60 -51 0
-60 -55 0
-60 -63 0
-51 -55 0
-51 -63 0
-55 -63 0
-73 -74 0
-73 -76 0
-73 -67 0
-73 -71 0
-73 -79 0
-74 -76 0
-74 -67 0
-74 -71 0
-74 -79 0
-76 -67 0
-76 -71 0
-76 -79 0
-67 -71 0
-67 -79 0
-71 -79 0
-89 -90 0
-89 -92 0
-89 -83 0
-89 -87 0
-89 -95 0
-90 -92 0
-90 -83 0
-90 -87 0
-90 -95 0
-92 -83 0
-92 -87 0
-92 -95 0
-83 -87 0
-83 -95 0
-87 -95 0
-105 -106 0
-105 -108 0
-105 -99 0
-105 -103 0
-105 -111 0
-106 -108 0
-106 -99 0
-106 -103 0
-106 -111 0
-108 -99 0
-108 -103 0
-108 -111 0
-99 -103 0
-99 -111 0
-103 -111 0
-121 -122 0
-121 -124 0
-121 -115 0
-121 -119 0
-121 -127 0
-122 -124 0
-122 -115 0
-122 -119 0
-122 -127 0
-124 -115 0
-124 -119 0
-124 -127 0
-115 -119 0
-115 -127 0
-119 -127 0
-137 -138 0
-137 -140 0
-137 -131 0
-137 -135 0
-137 -143 0
-138 -140 0
-138 -131 0
-138 -135 0
-138 -143 0
-140 -131 0
-140 -135 0
-140 -143 0
-131 -135 0
-131 -143 0
-135 -143 0
-153 -154 0
-153 -156 0
-153 -147 0
-153 -151 0
-153 -159 0
-154 -156 0
-154 -147 0
-154 -151 0
-154 -159 0
-156 -147 0
-156 -151 0
-156 -159 0
-147 -151 0
-147 -159 0
-151 -159 0
-169 -170 0
-169 -172 0
-169 -163 0
-169 -167 0
-169 -175 0
-170 -172 0
-170 -163 0
-170 -167 0
-170 -175 0
-172 -163 0
-172 -167 0
-172 -175 0
-163 -167 0
-163 -175 0
-167 -175 0
-185 -186 0
-185 -188 0
-185 -179 0
-185 -183 0
-185 -191 0
-186 -188 0
-186 -179 0
-186 -183 0
-186 -191 0
-188 -179 0
-188 -183 0
-188 -191 0
-179 -183 0
-179 -191 0
-183 -191 0
-13 -14 0
-13 -15 0
-13 -4 0
-13 -8 0
-13 -12 0
-14 -15 0
-14 -4 0
-14 -8 0
-14 -12 0
-15 -4 0
-15 -8 0
-15 -12 0
-4 -8 0
-4 -12 0
-8 -12 0
-29 -30 0
-29 -31 0
-29 -20 0
-29 -24 0
-29 -28 0
-30 -31 0
-30 -20 0
-30 -24 0
-30 -28 0
-31 -20 0
-31 -24 0
-31 -28 0
-20 -24 0
-20 -28 0
-24 -28 0
-45 -46 0
-45 -47 0
-45 -36 0
-45 -40 0
-45 -44 0
-46 -47 0
-46 -36 0
-46 -40 0
-46 -44 0
-47 -36 0
-47 -40 0
-47 -44 0
-36 -40 0
-36 -44 0
-40 -44 0
-61 -62 0
-61 -63 0
-61 -52 0
-61 -56 0
-61 -60 0
-62 -63 0
-62 -52 0
-62 -56 0
-62 -60 0
-63 -52 0
-63 -56 0
-63 -60 0
-52 -56 0
-52 -60 0
-56 -60 0
-77 -78 0
-77 -79 0
-77 -68 0
-77 -72 0
-77 -76 0
-78 -79 0
-78 -68 0
-78 -72 0
-78 -76 0
-79 -68 0
-79 -72 0
-79 -76 0
-68 -72 0
-68 -76 0
-72 -76 0
-93 -94 0
-93 -95 0
-93 -84 0
-93 -88 0
-93 -92 0
-94 -95 0
-94 -84 0
-94 -88 0
-94 -92 0
-95 -84 0
-95 -88 0
-95 -92 0
-84 -88 0
-84 -92 0
-88 -92 0
-109 -110 0
-109 -111 0
-109 -100 0
-109 -104 0
-109 -108 0
-110 -111 0
-110 -100 0
-110 -104 0
-110 -108 0
-111 -100 0
-111 -104 0
-111 -108 0
-100 -104 0
-100 -108 0
-104 -108 0
-125 -126 0
-125 -127 0
-125 -116 0
-125 -120 0
-125 -124 0
-126 -127 0
-126 -116 0
-126 -120 0
-126 -124 0
-127 -116 0
-127 -120 0
-127 -124 0
-116 -120 0
-116 -124 0
-120 -124 0
-141 -142 0
-141 -143 0
-141 -132 0
-141 -136 0
-141 -140 0
-142 -143 0
-142 -132 0
-142 -136 0
-142 -140 0
-143 -132 0
-143 -136 0
-143 -140 0
-132 -136 0
-132 -140 0
-136 -140 0
-157 -158 0
-157 -159 0
-157 -148 0
-157 -152 0
-157 -156 0
-158 -159 0
-158 -148 0
-158 -152 0
-158 -156 0
-159 -148 0
-159 -152 0
-159 -156 0
-148 -152 0
-148 -156 0
-152 -156 0
-173 -174 0
-173 -175 0
-173 -164 0
-173 -168 0
-173 -172 0
-174 -175 0
-174 -164 0
-174 -168 0
-174 -172 0
-175 -164 0
-175 -168 0
-175 -172 0
-164 -168 0
-164 -172 0
-168 -172 0
-189 -190 0
-189 -191 0
-189 -180 0
-189 -184 0
-189 -188 0
-190 -191 0
-190 -180 0
-190 -184 0
-190 -188 0
-191 -180 0
-191 -184 0
-191 -188 0
-180 -184 0
-180 -188 0
-184 -188 0
2 18 34 50 66 82 98 114 130 146 162 178 0
-2 -18 0
-2 -34 0
-2 -50 0
-2 -66 0
-2 -82 0
-2 -98 0
-2 -114 0
-2 -130 0
-2 -146 0
-2 -162 0
-2 -178 0
-18 -34 0
-18 -50 0
-18 -66 0
-18 -82 0
-18 -98 0
-18 -114 0
-18 -130 0
-18 -146 0
-18 -162 0
-18 -178 0
-34 -50 0
-34 -66 0
-34 -82 0
-34 -98 0
-34 -114 0
-34 -130 0
-34 -146 0
-34 -162 0
-34 -178 0
-50 -66 0
-50 -82 0
-50 -98 0
-50 -114 0
-50 -130 0
-50 -146 0
-50 -162 0
-50 -178 0
-66 -82 0
-66 -98 0
-66 -114 0
-66 -130 0
-66 -146 0
-66 -162 0
-66 -178 0
-82 -98 0
-82 -114 0
-82 -130 0
-82 -146 0
-82 -162 0
-82 -178 0
-98 -114 0
-98 -130 0
-98 -146 0
-98 -162 0
-98 -178 0
-114 -130 0
-114 -146 0
-114 -162 0
-114 -178 0
-130 -146 0
-130 -162 0
-130 -178 0
-146 -162 0
-146 -178 0
-162 -178 0
5 21 37 53 69 85 101 117 133 149 165 181 0
-5 -21 0
-5 -37 0
-5 -53 0
-5 -69 0
-5 -85 0
-5 -101 0
-5 -117 0
-5 -133 0
-5 -149 0
-5 -165 0
-5 -181 0
-21 -37 0
-21 -53 0
-21 -69 0
-21 -85 0
-21 -101 0
-21 -117 0
-21 -133 0
-21 -149 0
-21 -165 0
-21 -181 0
-37 -53 0
-37 -69 0
-37 -85 0
-37 -101 0
-37 -117 0
-37 -133 0
-37 -149 0
-37 -165 0
-37 -181 0
-53 -69 0
-53 -85 0
-53 -101 0
-53 -117 0
-53 -133 0
-53 -149 0
-53 -165 0
-53 -181 0
-69 -85 0
-69 -101 0
-69 -117 0
-69 -133 0
-69 -149 0
-69 -165 0
-69 -181 0
-85 -101 0
-85 -117 0
-85 -133 0
-85 -149 0
-85 -165 0
-85 -181 0
-101 -117 0
-101 -133 0
-101 -149 0
-101 -165 0
-101 -181 0
-117 -133 0
-117 -149 0
-117 -165 0
-117 -181 0
-133 -149 0
-133 -165 0
-133 -181 0
-149 -165 0
-149 -181 0
-165 -181 0
3 19 35 51 67 83 99 115 131 147 163 179 0
-3 -19 0
-3 -35 0
-3 -51 0
-3 -67 0
-3 -83 0
-3 -99 0
-3 -115 0
-3 -131 0
-3 -147 0
-3 -163 0
-3 -179 0
-19 -35 0
-19 -51 0
-19 -67 0
-19 -83 0
-19 -99 0
-19 -115 0
-19 -131 0
-19 -147 0
-19 -163 0
-19 -179 0
-35 -51 0
-35 -67 0
-35 -83 0
-35 -99 0
-35 -115 0
-35 -131 0
-35 -147 0
-35 -163 0
-35 -179 0
-51 -67 0
-51 -83 0
-51 -99 0
-51 -115 0
-51 -131 0
-51 -147 0
-51 -163 0
-51 -179 0
-67 -83 0
-67 -99 0
-67 -115 0
-67 -131 0
-67 -147 0
-67 -163 0
-67 -179 0
-83 -99 0
-83 -115 0
-83 -131 0
-83 -147 0
-83 -163 0
-83 -179 0
-99 -115 0
-99 -131 0
-99 -147 0
-99 -163 0
-99 -179 0
-115 -131 0
-115 -147 0
-115 -163 0
-115 -179 0
-131 -147 0
-131 -163 0
-131 -179 0
-147 -163 0
-147 -179 0
-163 -179 0
9 25 41 57 73 89 105 121 137 153 169 185 0
-9 -25 0
-9 -41 0
-9 -57 0
-9 -73 0
-9 -89 0
-9 -105 0
-9 -121 0
-9 -137 0
-9 -153 0
-9 -169 0
-9 -185 0
-25 -41 0
-25 -57 0
-25 -73 0
-25 -89 0
-25 -105 0
-25 -121 0
-25 -137 0
-25 -153 0
-25 -169 0
-25 -185 0
-41 -57 0
-41 -73 0
-41 -89 0
-41 -105 0
-41 -121 0
-41 -137 0
-41 -153 0
-41 -169 0
-41 -185 0
-57 -73 0
-57 -89 0
-57 -105 0
-57 -121 0
-57 -137 0
-57 -153 0
-57 -169 0
-57 -185 0
-73 -89 0
-73 -105 0
-73 -121 0
-73 -137 0
-73 -153 0
-73 -169 0
-73 -185 0
-89 -105 0
-89 -121 0
-89 -137 0
-89 -153 0
-89 -169 0
-89 -185 0
-105 -121 0
-105 -137 0
-105 -153 0
-105 -169 0
-105 -185 0
-121 -137 0
-121 -153 0
-121 -169 0
-121 -185 0
-137 -153 0
-137 -169 0
-137 -185 0
-153 -169 0
-153 -185 0
-169 -185 0
4 20 36 52 68 84 100 116 132 148 164 180 0
-4 -20 0
-4 -36 0
-4 -52 0
-4 -68 0
-4 -84 0
-4 -100 0
-4 -116 0
-4 -132 0
-4 -148 0
-4 -164 0
-4 -180 0
-20 -36 0
-20 -52 0
-20 -68 0
-20 -84 0
-20 -100 0
-20 -116 0
-20 -132 0
-20 -148 0
-20 -164 0
-20 -180 0
-36 -52 0
-36 -68 0
-36 -84 0
-36 -100 0
-36 -116 0
-36 -132 0
-36 -148 0
-36 -164 0
-36 -180 0
-52 -68 0
-52 -84 0
-52 -100 0
-52 -116 0
-52 -132 0
-52 -148 0
-52 -164 0
-52 -180 0
-68 -84 0
-68 -100 0
-68 -116 0
-68 -132 0
-68 -148 0
-68 -164 0
-68 -180 0
-84 -100 0
-84 -116 0
-84 -132 0
-84 -148 0
-84 -164 0
-84 -180 0
-100 -116 0
-100 -132 0
-100 -148 0
-100 -164 0
-100 -180 0
-116 -132 0
-116 -148 0
-116 -164 0
-116 -180 0
-132 -148 0
-132 -164 0
-132 -180 0
-148 -164 0
-148 -180 0
-164 -180 0
13 29 45 61 77 93 109 125 141 157 173 189 0
-13 -29 0
-13 -45 0
-13 -61 0
-13 -77 0
-13 -93 0
-13 -109 0
-13 -125 0
-13 -141 0
-13 -157 0
-13 -173 0
-13 -189 0
-29 -45 0
-29 -61 0
-29 -77 0
-29 -93 0
-29 -109 0
-29 -125 0
-29 -141 0
-29 -157 0
-29 -173 0
-29 -189 0
-45 -61 0
-45 -77 0
-45 -93 0
-45 -109 0
-45 -125 0
-45 -141 0
-45 -157 0
-45 -173 0
-45 -189 0
-61 -77 0
-61 -93 0
-61 -109 0
-61 -125 0
-61 -141 0
-61 -157 0
-61 -173 0
-61 -189 0
-77 -93 0
-77 -109 0
-77 -125 0
-77 -141 0
-77 -157 0
-77 -173 0
-77 -189 0
-93 -109 0
-93 -125 0
-93 -141 0
-93 -157 0
-93 -173 0
-93 -189 0
-109 -125 0
-109 -141 0
-109 -157 0
-109 -173 0
-109 -189 0
-125 -141 0
-125 -157 0
-125 -173 0
-125 -189 0
-141 -157 0
-141 -173 0
-141 -189 0
-157 -173 0
-157 -189 0
-173 -189 0
7 23 39 55 71 87 103 119 135 151 167 183 0
-7 -23 0
-7 -39 0
-7 -55 0
-7 -71 0
-7 -87 0
-7 -103 0
-7 -119 0
-7 -135 0
-7 -151 0
-7 -167 0
-7 -183 0
-23 -39 0
-23 -55 0
-23 -71 0
-23 -87 0
-23 -103 0
-23 -119 0
-23 -135 0
-23 -151 0
-23 -167 0
-23 -183 0
-39 -55 0
-39 -71 0
-39 -87 0
-39 -103 0
-39 -119 0
-39 -135 0
-39 -151 0
-39 -167 0
-39 -183 0
-55 -71 0
-55 -87 0
-55 -103 0
-55 -119 0
-55 -135 0
-55 -151 0
-55 -167 0
-55 -183 0
-71 -87 0
-71 -103 0
-71 -119 0
-71 -135 0
-71 -151 0
-71 -167 0
-71 -183 0
-87 -103 0
-87 -119 0
-87 -135 0
-87 -151 0
-87 -167 0
-87 -183 0
-103 -119 0
-103 -135 0
-103 -151 0
-103 -167 0
-103 -183 0
-119 -135 0
-119 -151 0
-119 -167 0
-119 -183 0
-135 -151 0
-135 -167 0
-135 -183 0
-151 -167 0
-151 -183 0
-167 -183 0
10 26 42 58 74 90 106 122 138 154 170 186 0
-10 -26 0
-10 -42 0
-10 -58 0
-10 -74 0
-10 -90 0
-10 -106 0
-10 -122 0
-10 -138 0
-10 -154 0
-10 -170 0
-10 -186 0
-26 -42 0
-26 -58 0
-26 -74 0
-26 -90 0
-26 -106 0
-26 -122 0
-26 -138 0
-26 -154 0
-26 -170 0
-26 -186 0
-42 -58 0
-42 -74 0
-42 -90 0
-42 -106 0
-42 -122 0
-42 -138 0
-42 -154 0
-42 -170 0
-42 -186 0
-58 -74 0
-58 -90 0
-58 -106 0
-58 -122 0
-58 -138 0
-58 -154 0
-58 -170 0
-58 -186 0
-74 -90 0
-74 -106 0
-74 -122 0
-74 -138 0
-74 -154 0
-74 -170 0
-74 -186 0
-90 -106 0
-90 -122 0
-90 -138 0
-90 -154 0
-90 -170 0
-90 -186 0
-106 -122 0
-106 -138 0
-106 -154 0
-106 -170 0
-106 -186 0
-122 -138 0
-122 -154 0
-122 -170 0
-122 -186 0
-138 -154 0
-138 -170 0
-138 -186 0
-154 -170 0
-154 -186 0
-170 -186 0
8 24 40 56 72 88 104 120 136 152 168 184 0
-8 -24 0
-8 -40 0
-8 -56 0
-8 -72 0
-8 -88 0
-8 -104 0
-8 -120 0
-8 -136 0
-8 -152 0
-8 -168 0
-8 -184 0
-24 -40 0
-24 -56 0
-24 -72 0
-24 -88 0
-24 -104 0
-24 -120 0
-24 -136 0
-24 -152 0
-24 -168 0
-24 -184 0
-40 -56 0
-40 -72 0
-40 -88 0
-40 -104 0
-40 -120 0
-40 -136 0
-40 -152 0
-40 -168 0
-40 -184 0
-56 -72 0
-56 -88 0
-56 -104 0
-56 -120 0
-56 -136 0
-56 -152 0
-56 -168 0
-56 -184 0
-72 -88 0
-72 -104 0
-72 -120 0
-72 -136 0
-72 -152 0
-72 -168 0
-72 -184 0
-88 -104 0
-88 -120 0
-88 -136 0
-88 -152 0
-88 -168 0
-88 -184 0
-104 -120 0
-104 -136 0
-104 -152 0
-104 -168 0
-104 -184 0
-120 -136 0
-120 -152 0
-120 -168 0
-120 -184 0
-136 -152 0
-136 -168 0
-136 -184 0
-152 -168 0
-152 -184 0
-168 -184 0
14 30 46 62 78 94 110 126 142 158 174 190 0
-14 -30 0
-14 -46 0
-14 -62 0
-14 -78 0
-14 -94 0
-14 -110 0
-14 -126 0
-14 -142 0
-14 -158 0
-14 -174 0
-14 -190 0
-30 -46 0
-30 -62 0
-30 -78 0
-30 -94 0
-30 -110 0
-30 -126 0
-30 -142 0
-30 -158 0
-30 -174 0
-30 -190 0
-46 -62 0
-46 -78 0
-46 -94 0
-46 -110 0
-46 -126 0
-46 -142 0
-46 -158 0
-46 -174 0
-46 -190 0
-62 -78 0
-62 -94 0
-62 -110 0
-62 -126 0
-62 -142 0
-62 -158 0
-62 -174 0
-62 -190 0
-78 -94 0
-78 -110 0
-78 -126 0
-78 -142 0
-78 -158 0
-78 -174 0
-78 -190 0
-94 -110 0
-94 -126 0
-94 -142 0
-94 -158 0
-94 -174 0
-94 -190 0
-110 -126 0
-110 -142 0
-110 -158 0
-110 -174 0
-110 -190 0
-126 -142 0
-126 -158 0
-126 -174 0
-126 -190 0
-142 -158 0
-142 -174 0
-142 -190 0
-158 -174 0
-158 -190 0
-174 -190 0
12 28 44 60 76 92 108 124 140 156 172 188 0
-12 -28 0
-12 -44 0
-12 -60 0
-12 -76 0
-12 -92 0
-12 -108 0
-12 -124 0
-12 -140 0
-12 -156 0
-12 -172 0
-12 -188 0
-28 -44 0
-28 -60 0
-28 -76 0
-28 -92 0
-28 -108 0
-28 -124 0
-28 -140 0
-28 -156 0
-28 -172 0
-28 -188 0
-44 -60 0
-44 -76 0
-44 -92 0
-44 -108 0
-44 -124 0
-44 -140 0
-44 -156 0
-44 -172 0
-44 -188 0
-60 -76 0
-60 -92 0
-60 -108 0
-60 -124 0
-60 -140 0
-60 -156 0
-60 -172 0
-60 -188 0
-76 -92 0
-76 -108 0
-76 -124 0
-76 -140 0
-76 -156 0
-76 -172 0
-76 -188 0
-92 -108 0
-92 -124 0
-92 -140 0
-92 -156 0
-92 -172 0
-92 -188 0
-108 -124 0
-108 -140 0
-108 -156 0
-108 -172 0
-108 -188 0
-124 -140 0
-124 -156 0
-124 -172 0
-124 -188 0
-140 -156 0
-140 -172 0
-140 -188 0
-156 -172 0
-156 -188 0
-172 -188 0
15 31 47 63 79 95 111 127 143 159 175 191 0
-15 -31 0
-15 -47 0
-15 -63 0
-15 -79 0
-15 -95 0
-15 -111 0
-15 -127 0
-15 -143 0
-15 -159 0
-15 -175 0
-15 -191 0
-31 -47 0
-31 -63 0
-31 -79 0
-31 -95 0
-31 -111 0
-31 -127 0
-31 -143 0
-31 -159 0
-31 -175 0
-31 -191 0
-47 -63 0
-47 -79 0
-47 -95 0
-47 -111 0
-47 -127 0
-47 -143 0
-47 -159 0
-47 -175 0
-47 -191 0
-63 -79 0
-63 -95 0
-63 -111 0
-63 -127 0
-63 -143 0
-63 -159 0
-63 -175 0
-63 -191 0
-79 -95 0
-79 -111 0
-79 -127 0
-79 -143 0
-79 -159 0
-79 -175 0
-79 -191 0
-95 -111 0
-95 -127 0
-95 -143 0
-95 -159 0
-95 -175 0
-95 -191 0
-111 -127 0
-111 -143 0
-111 -159 0
-111 -175 0
-111 -191 0
-127 -143 0
-127 -159 0
-127 -175 0
-127 -191 0
-143 -159 0
-143 -175 0
-143 -191 0
-159 -175 0
-159 -191 0
-175 -191 0
